0 4
0 5
0 6
0 7
0 24
1 4
1 5
1 6
1 7
1 25
2 4
2 5
2 6
2 7
2 26
3 4
3 5
3 6
3 7
3 27
4 12
5 13
6 14
7 15
8 12
8 13
8 14
8 15
8 32
9 12
9 13
9 14
9 15
9 33
10 12
10 13
10 14
10 15
10 34
11 12
11 13
11 14
11 15
11 35
12 20
13 21
14 22
15 23
16 20
16 21
16 22
16 23
16 40
17 20
17 21
17 22
17 23
17 41
18 20
18 21
18 22
18 23
18 42
19 20
19 21
19 22
19 23
19 43
24 28
24 29
24 30
24 31
24 48
25 28
25 29
25 30
25 31
25 49
26 28
26 29
26 30
26 31
26 50
27 28
27 29
27 30
27 31
27 51
28 36
29 37
30 38
31 39
32 36
32 37
32 38
32 39
32 56
33 36
33 37
33 38
33 39
33 57
34 36
34 37
34 38
34 39
34 58
35 36
35 37
35 38
35 39
35 59
36 44
37 45
38 46
39 47
40 44
40 45
40 46
40 47
40 64
41 44
41 45
41 46
41 47
41 65
42 44
42 45
42 46
42 47
42 66
43 44
43 45
43 46
43 47
43 67
48 52
48 53
48 54
48 55
49 52
49 53
49 54
49 55
50 52
50 53
50 54
50 55
51 52
51 53
51 54
51 55
52 60
53 61
54 62
55 63
56 60
56 61
56 62
56 63
57 60
57 61
57 62
57 63
58 60
58 61
58 62
58 63
59 60
59 61
59 62
59 63
60 68
61 69
62 70
63 71
64 68
64 69
64 70
64 71
65 68
65 69
65 70
65 71
66 68
66 69
66 70
66 71
67 68
67 69
67 70
67 71
